p cnf 50 120
46 -16 32 0
4 -7 33 0
-8 -21 6 0
2 -37 19 0
43 -16 20 0
49 -30 11 0
-46 -40 49 0
-30 13 -20 0
-33 -13 25 0
-44 -24 -6 0
23 26 15 0
-17 44 -28 0
34 1 -14 0
15 45 4 0
13 36 -49 0
-31 -1 14 0
46 -38 32 0
-27 28 40 0
6 3 -50 0
-14 29 -2 0
49 -4 24 0
-2 -22 10 0
17 39 -15 0
-22 39 -32 0
6 -49 -9 0
-27 35 39 0
-10 -7 -49 0
-36 21 7 0
-3 -12 -44 0
25 -46 30 0
27 -6 40 0
-35 7 -32 0
-35 -25 -40 0
31 33 25 0
-14 49 -6 0
7 3 -6 0
15 -39 -23 0
1 28 -41 0
17 6 48 0
-35 -17 -34 0
22 -4 16 0
45 -34 -11 0
47 -1 25 0
42 -22 32 0
-39 -8 -43 0
5 27 36 0
40 -31 8 0
-9 18 27 0
15 -17 18 0
27 -6 36 0
26 9 46 0
39 3 14 0
46 9 39 0
-9 21 -5 0
-8 -43 -4 0
50 -42 -37 0
33 -46 -21 0
-10 4 -24 0
-36 -35 30 0
-34 33 -49 0
35 50 -31 0
-50 -25 24 0
-32 36 16 0
5 -49 37 0
-38 35 16 0
-37 -1 48 0
-17 46 -39 0
-40 -16 -29 0
-14 -43 45 0
35 -34 -4 0
-9 43 -5 0
-41 -4 -46 0
26 31 40 0
35 -48 -46 0
-26 8 -46 0
-39 7 -21 0
-25 20 -34 0
14 45 9 0
-32 -4 11 0
-46 9 25 0
6 -49 37 0
-17 16 -9 0
-1 -19 25 0
33 43 -27 0
-31 23 -8 0
33 32 43 0
20 35 -30 0
22 -41 -36 0
1 -50 48 0
24 -22 38 0
-39 -13 -34 0
-25 1 31 0
35 42 -21 0
17 13 -41 0
-46 -14 30 0
1 16 -31 0
8 48 -6 0
10 -33 -39 0
-17 -47 26 0
24 -18 14 0
x 1 -3 4 -6 -11 14 15 18 20 23 26 29 30 31 32 34 -38 -41 -42 -44 -50 0
x -1 -4 5 -6 -7 8 -9 -10 -14 15 -17 -19 -23 25 26 -27 -28 29 30 -32 -34 37 38 -43 -44 -45 0
x 8 -9 11 -14 -16 -17 -19 21 -22 23 -24 -28 -32 -34 -35 36 -37 38 -40 43 44 46 -47 0
x -1 -4 7 -8 -10 11 -12 14 20 -21 -22 23 26 29 -31 -32 -33 -34 -35 -37 -38 -39 -40 -41 -45 46 47 0
x 1 -2 -3 -4 5 7 8 -9 10 -11 -12 17 19 20 21 -27 -28 -31 34 -35 36 -37 39 -40 42 43 46 -47 48 0
x 1 2 6 -7 -10 -11 -13 21 -22 -23 24 25 -26 27 -31 -33 35 -36 -38 -39 -42 44 45 -47 -48 50 0
x -1 -2 -3 5 -6 -8 9 10 11 13 14 -15 22 23 -24 26 28 29 31 -35 36 39 -40 -41 44 46 -50 0
x -1 2 6 7 -9 10 -11 -12 -15 16 -17 -20 21 22 -24 -26 27 -28 -31 -34 35 -39 -40 41 -42 44 -45 -49 -50 0
x -1 6 7 10 13 14 -17 -18 -24 25 28 30 31 32 -34 36 38 39 -40 -41 42 44 -48 0
x -4 7 8 -9 -10 15 16 -18 20 -21 26 27 -30 33 -36 38 39 -40 -41 -44 -45 -47 -49 50 0
x -4 5 -6 -7 8 -9 -10 11 12 13 -14 -15 18 19 20 -21 23 -26 28 30 31 -32 -34 35 -36 -39 -42 -44 -45 -50 0
x -6 -8 -9 -11 -12 -13 14 -18 20 21 25 -27 28 -29 30 -33 36 -37 38 39 -41 44 48 49 50 0
x 2 -3 4 5 6 -7 9 12 14 19 -20 21 -23 -29 -31 34 -36 -37 -38 46 48 -49 0
x -4 5 -6 10 -12 -13 -14 -16 -26 -27 29 31 -32 35 38 44 45 -46 49 -50 0
x 1 2 -7 -8 9 10 -12 15 -16 -20 21 -24 -25 -32 -35 38 -39 40 -42 43 48 49 0
x 2 -3 5 7 -8 -10 11 12 -17 -18 -20 21 -22 23 26 -27 28 -33 35 -36 37 38 39 -44 -46 -48 -49 50 0
x 1 2 -4 -7 11 12 -14 16 17 -18 19 20 -24 25 -36 -37 -39 42 -43 -49 50 0
x -1 2 3 4 -6 7 -10 -11 13 -14 -15 -17 19 20 -21 22 27 -28 30 32 -33 -35 37 -40 -41 43 44 45 -47 48 -49 -50 0
x 1 -3 -6 10 13 -15 17 18 -20 -24 -25 26 29 31 33 -36 -37 38 -39 40 -42 -43 -49 -50 0
x -1 3 -4 7 -9 14 16 18 -19 21 22 -23 -24 -26 -27 28 30 33 -34 36 37 43 44 45 48 50 0
